Route #1: 57 94 64 105 69 17 31 40 63 29
Route #2: 74 99 11 34 72 82 96
Route #3: 21 54 85 67 77 83 2 13
Route #4: 100 51 60 87 76 15 5
Route #5: 45 103 93 28 101 12 104 1
Route #6: 14 58 88 91 36 8 48 49
Route #7: 7 75 84 66 97 43 53 44
Route #8: 52 92 102 24 90 26 62
Route #9: 33 22
Route #10: 78 19 27 37 79 71 46 9
Route #11: 86 18 41 10 16 20 56
Route #12: 59 89 30 42 23 3 32 73 35
Route #13: 39 50 81 6 70 4 98 55
Route #14: 68 95 38 65 80 61 47 25
Cost 26383
